c turning on binary mode checking
c parsing input formula with 259840 variables and 1039924 clauses
c finished parsing, read 2867896 bytes from proof file
c detected empty clause; start verification via backward checking
c 1328 of 1039924 clauses in core                            
c 380 of 113139 lemmas in core using 5780 resolution steps
c 0 RAT lemmas in core; 26 redundant literals in core lemmas
s VERIFIED
c verification time: 1.184 seconds
